SCIP Status        : solving was interrupted [time limit reached]
Total Time         :    3600.01
  solving          :    3600.01
  presolving       :       0.43 (included in solving)
  reading          :       0.00
  copying          :       0.66 (53 #copies) (minimal 0.00, maximal 0.02, average 0.01)
Original Problem   :
  Problem name     : bbbenchmark/pw09_100.1.cut
  Variables        : 101 (100 binary, 0 integer, 0 implicit integer, 1 continuous)
  Constraints      : 1 initial, 1 maximal
  Objective        : minimize, 1 non-zeros (abs.min = 1, abs.max = 1)
Presolved Problem  :
  Problem name     : t_bbbenchmark/pw09_100.1.cut
  Variables        : 1290 (100 binary, 0 integer, 1140 implicit integer, 50 continuous)
  Constraints      : 1288 initial, 3204 maximal
  Objective        : minimize, 1 non-zeros (abs.min = 1, abs.max = 1)
  Nonzeros         : 11585 constraint, 202 clique table
Presolvers         :   ExecTime  SetupTime  Calls  FixedVars   AggrVars   ChgTypes  ChgBounds   AddHoles    DelCons    AddCons   ChgSides   ChgCoefs
  boundshift       :       0.00       0.00      0          0          0          0          0          0          0          0          0          0
  convertinttobin  :       0.00       0.00      0          0          0          0          0          0          0          0          0          0
  domcol           :       0.00       0.00      1          0          0          0          0          0          0          0          0          0
  dualagg          :       0.00       0.00      0          0          0          0          0          0          0          0          0          0
  dualcomp         :       0.00       0.00      1          0          0          0          0          0          0          0          0          0
  dualinfer        :       0.00       0.00      0          0          0          0          0          0          0          0          0          0
  dualsparsify     :       0.00       0.00      1          0          0          0          0          0          0          0          0          0
  gateextraction   :       0.00       0.00      0          0          0          0          0          0          0          0          0          0
  implics          :       0.00       0.00      2          0          0          0          0          0          0          0          0          0
  inttobinary      :       0.00       0.00      0          0          0          0          0          0          0          0          0          0
  qpkktref         :       0.00       0.00      0          0          0          0          0          0          0          0          0          0
  redvub           :       0.00       0.00      0          0          0          0          0          0          0          0          0          0
  sparsify         :       0.00       0.00      1          0          0          0          0          0          0          0          0          0
  stuffing         :       0.00       0.00      0          0          0          0          0          0          0          0          0          0
  trivial          :       0.00       0.00      4          0          0          0          0          0          0          0          0          0
  tworowbnd        :       0.00       0.00      0          0          0          0          0          0          0          0          0          0
  dualfix          :       0.00       0.00      4          0          0          0          0          0          0          0          0          0
  genvbounds       :       0.00       0.00      0          0          0          0          0          0          0          0          0          0
  probing          :       0.22       0.00      1          0          0          0          0          0          0          0          0          0
  pseudoobj        :       0.00       0.00      1          0          0          0          1          0          0          0          0          0
  symmetry         :       0.00       0.00      0          0          0          0          0          0          0          0          0          0
  vbounds          :       0.00       0.00      1          0          0          0          0          0          0          0          0          0
  varbound         :       0.00       0.00      2          0          0          0          0          0          0          0          0          0
  and              :       0.00       0.01      2          0          0          0          0          0          0          0          0          0
  linear           :       0.01       0.00      2          0          0          0          0          0          0          0          0          0
  logicor          :       0.00       0.00      0          0          0          0          0          0          0          0          0          0
  bounddisjunction :       0.00       0.00      0          0          0          0          0          0          0          0          0          0
  nonlinear        :       0.19       0.00      5          0          0          0          1          0          0       1287          0          0
  benders          :       0.00       0.00      0          0          0          0          0          0          0          0          0          0
  components       :       0.00       0.00      1          0          0          0          0          0          0          0          0          0
  root node        :          -          -      -          0          -          -          7          -          -          -          -          -
Constraints        :     Number  MaxNumber  #Separate #Propagate    #EnfoLP    #EnfoRelax  #EnfoPS    #Check   #ResProp    Cutoffs    DomReds       Cuts    Applied      Conss   Children
  benderslp        :          0          0          0          0     250147          0          0      18950          0          0          0          0          0          0          0
  integral         :          0          0          0          0     250147          0          0      18950          0          0        105          0          0         17     500244
  varbound         :         49         49        213    1191251          0          0          0       2278          0          0     115387          0          0          0          0
  and              :       1140       1140     272151    1199112          0          0          0       2278     130138          1     239825       1364       1205          0          0
  linear           :         99+       199        213    1199439          0          0          0       2276      25025        728    5152834          0          0          0          0
  logicor          :          0+      1218         50      84338          0          0          0          0         11        273          3          0          0          0          0
  bounddisjunction :          0+      1306          0     102432          0          0          0          0          2         78          0          0          0          0          0
  benders          :          0          0          0          0          0          0          0         19          0          0          0          0          0          0          0
  countsols        :          0          0          0          0          0          0          0         19          0          0          0          0          0          0          0
  components       :          0          0          0          0          0          0          0          0          0          0          0          0          0          0          0
Constraint Timings :  TotalTime  SetupTime   Separate  Propagate     EnfoLP     EnfoPS     EnfoRelax   Check    ResProp    SB-Prop
  benderslp        :       0.34       0.00       0.00       0.00       0.32       0.00       0.00       0.02       0.00       0.00
  integral         :      79.64       0.00       0.00       0.00      79.45       0.00       0.00       0.19       0.00       0.00
  varbound         :       2.64       0.00       0.00       2.57       0.00       0.00       0.00       0.07       0.00       0.00
  and              :      85.73       0.01      64.30      20.53       0.00       0.00       0.00       0.69       0.16       0.04
  linear           :      35.70       0.00       0.22      35.26       0.00       0.00       0.00       0.01       0.15       0.06
  logicor          :       2.21       0.00       0.00       2.21       0.00       0.00       0.00       0.00       0.00       0.00
  bounddisjunction :       4.21       0.00       0.00       4.21       0.00       0.00       0.00       0.00       0.00       0.00
  benders          :       0.00       0.00       0.00       0.00       0.00       0.00       0.00       0.00       0.00       0.00
  countsols        :       0.00       0.00       0.00       0.00       0.00       0.00       0.00       0.00       0.00       0.00
  components       :       0.36       0.00       0.00       0.36       0.00       0.00       0.00       0.00       0.00       0.00
Propagators        : #Propagate   #ResProp    Cutoffs    DomReds
  dualfix          :          2          0          0          0
  genvbounds       :          0          0          0          0
  nlobbt           :          0          0          0          0
  obbt             :          0          0          0          0
  probing          :          0          0          0          0
  pseudoobj        :    1046892          0          0          7
  redcost          :     535379          0          0     117660
  rootredcost      :          8          0          0          0
  symmetry         :          0          0          0          0
  vbounds          :     200546          0          0          0
Propagator Timings :  TotalTime  SetupTime   Presolve  Propagate    ResProp    SB-Prop
  dualfix          :       0.00       0.00       0.00       0.00       0.00       0.00
  genvbounds       :       1.03       0.00       0.00       1.03       0.00       0.00
  nlobbt           :       0.00       0.00       0.00       0.00       0.00       0.00
  obbt             :       0.00       0.00       0.00       0.00       0.00       0.00
  probing          :       0.22       0.00       0.22       0.00       0.00       0.00
  pseudoobj        :       1.62       0.00       0.00       1.62       0.00       0.00
  redcost          :      22.10       0.00       0.00      22.10       0.00       0.00
  rootredcost      :       0.97       0.00       0.00       0.97       0.00       0.00
  symmetry         :       0.71       0.00       0.00       0.71       0.00       0.00
  vbounds          :       0.92       0.00       0.00       0.91       0.00       0.01
Conflict Analysis  :       Time      Calls    Success    DomReds  Conflicts   Literals    Reconvs ReconvLits   Dualrays   Nonzeros   LP Iters   (pool size: [10000,10000])
  propagation      :       0.00        354        196          -        309       93.0          0        0.0          -          -          -
  infeasible LP    :       0.87        559        559          -      20235      136.4          0        0.0       1627      123.4          0
  bound exceed. LP :      17.87       4098       3931          -      37368       93.3          1        7.0          0        0.0      55453
  strong branching :       0.00          0          0          -          0        0.0          0        0.0          -          -          0
  pseudo solution  :       0.00          0          0          -          0        0.0          0        0.0          -          -          -
  applied globally :       0.22          -          -          0      13395       90.6          -          -       1627          -          -
  applied locally  :          -          -          -          0          0        0.0          -          -          0          -          -
Separators         :   ExecTime  SetupTime      Calls  RootCalls    Cutoffs    DomReds  FoundCuts ViaPoolAdd  DirectAdd    Applied ViaPoolApp  DirectApp      Conss
  cut pool         :       6.03          -      36561        241          -          -      24651    1214910          -          -          -          -          -    (maximal pool size:       1627)
  aggregation      :     232.17       0.00       5280        213          0          0          3          5          0          5          5          0          0
  > cmir           :          -          -          -          -          -          -          -          5          0          5          5          0          -
  > flowcover      :          -          -          -          -          -          -          -          0          0          0          0          0          -
  > knapsackcover  :          -          -          -          -          -          -          -          0          0          0          0          0          -
  cgmip            :       0.00       0.00          0          0          0          0          0          0          0          0          0          0          0
  clique           :       0.00       0.00        213        213          0          0          0          0          0          0          0          0          0
  closecuts        :       0.00       0.00          0          0          0          0          0          0          0          0          0          0          0
  convexproj       :       0.00       0.00          0          0          0          0          0          0          0          0          0          0          0
  disjunctive      :       0.00       0.00          0          0          0          0          0          0          0          0          0          0          0
  eccuts           :       0.00       0.00          0          0          0          0          0          0          0          0          0          0          0
  gauge            :       0.00       0.00          0          0          0          0          0          0          0          0          0          0          0
  gomory           :       0.00       0.00          0          0          0          0          0          0          0          0          0          0          0
  > gomorymi       :          -          -          -          -          -          -          -          0          0          0          0          0          -
  > strongcg       :          -          -          -          -          -          -          -          0          0          0          0          0          -
  impliedbounds    :       0.25       0.00       5280        213          0          0          6          0          0          0          0          0          0
  interlattice     :       0.00       0.00          0          0          0          0          0          0          0          0          0          0          0
  interminor       :       0.00       0.00          0          0          0          0          0          0          0          0          0          0          0
  intersub         :       5.26       0.00        165        165          0          0        165          0        165        165          0        165          0
  intobj           :       0.00       0.00          0          0          0          0          0          0          0          0          0          0          0
  mcf              :       0.00       0.00          1          1          0          0          0          0          0          0          0          0          0
  minor            :       0.02       0.00          0          0          0          0          0          0          0          0          0          0          0
  mixing           :       0.02       0.00       5280        213          0          0          0          0          0          0          0          0          0
  oddcycle         :       0.00       0.00          0          0          0          0          0          0          0          0          0          0          0
  rapidlearning    :       0.01       0.00          0          0          0          0          0          0          0          0          0          0          0
  rlt              :       0.00       0.00         10         10          0          0          0          0          0          0          0          0          0
  zerohalf         :      20.29       0.00       4465         20          0          0      24642    1214905          0     194941     194941          0          0
Cutselectors       :   ExecTime  SetupTime      Calls  RootCalls   Selected     Forced   Filtered  RootSelec   RootForc   RootFilt 
  hybrid           :       1.06       0.00      18951        213     196316          0    1020123        320          0          5
Pricers            :   ExecTime  SetupTime      Calls       Vars
  problem variables:       0.00          -          0          0
Branching Rules    :   ExecTime  SetupTime   BranchLP  BranchExt   BranchPS    Cutoffs    DomReds       Cuts      Conss   Children
  allfullstrong    :       0.00       0.00          0          0          0          0          0          0          0          0
  cloud            :       0.00       0.00          0          0          0          0          0          0          0          0
  distribution     :       0.00       0.00          0          0          0          0          0          0          0          0
  fullstrong       :       0.00       0.00          0          0          0          0          0          0          0          0
  inference        :       0.00       0.00          0          0          0          0          0          0          0          0
  leastinf         :       0.00       0.00          0          0          0          0          0          0          0          0
  lookahead        :       0.00       0.00          0          0          0          0          0          0          0          0
  mostinf          :       0.00       0.00          0          0          0          0          0          0          0          0
  multaggr         :       0.00       0.00          0          0          0          0          0          0          0          0
  nodereopt        :       0.00       0.00          0          0          0          0          0          0          0          0
  pscost           :       0.00       0.00          0          0          0          0          0          0          0          0
  random           :       0.00       0.00          0          0          0          0          0          0          0          0
  relpscost        :      78.56       0.00     250147          0          0          0        105          0         17     500244
  vanillafullstrong:       0.00       0.00          0          0          0          0          0          0          0          0
Primal Heuristics  :   ExecTime  SetupTime      Calls      Found       Best
  LP solutions     :       0.00          -          -          0          0
  relax solutions  :       0.00          -          -          0          0
  pseudo solutions :       0.00          -          -          0          0
  strong branching :       0.00          -          -          0          0
  actconsdiving    :       0.00       0.00          0          0          0
  adaptivediving   :       5.82       0.00         26          0          0
  alns             :       1.37       0.00         18          0          0
  bound            :       0.00       0.00          0          0          0
  clique           :       0.01       0.00          1          0          0
  coefdiving       :       0.00       0.00          0          0          0
  completesol      :       0.00       0.00          0          0          0
  conflictdiving   :     157.49       0.00       1358          0          0
  crossover        :       1.01       0.00          2          1          1
  dins             :       0.00       0.00          0          0          0
  distributiondivin:      79.73       0.00        458          0          0
  dps              :       0.00       0.00          0          0          0
  dualval          :       0.00       0.00          0          0          0
  farkasdiving     :       0.05       0.00          0          0          0
  feaspump         :       1.23       0.00          2          1          0
  fixandinfer      :       0.00       0.00          0          0          0
  fracdiving       :      52.16       0.00        264          0          0
  gins             :       0.31       0.00          0          0          0
  guideddiving     :      50.85       0.00        300          1          1
  indicator        :       0.18       0.00          0          0          0
  indicatordiving  :       0.00       0.00          0          0          0
  intdiving        :       0.00       0.00          0          0          0
  intshifting      :       1.25       0.00        143          0          0
  linesearchdiving :      47.12       0.00        458          1          1
  localbranching   :       0.00       0.00          0          0          0
  locks            :       0.01       0.00          1          0          0
  lpface           :       0.28       0.00          0          0          0
  mpec             :      61.56       0.00         11          0          0
  multistart       :       0.00       0.00          0          0          0
  mutation         :       0.00       0.00          0          0          0
  nlpdiving        :      12.74       0.00          1          0          0
  objpscostdiving  :      38.78       0.00        126          4          1
  octane           :       0.00       0.00          0          0          0
  ofins            :       0.27       0.00          0          0          0
  oneopt           :       0.22       0.00         10          0          0
  padm             :       0.00       0.00          0          0          0
  proximity        :       0.00       0.00          0          0          0
  pscostdiving     :      56.71       0.00        244          3          3
  randrounding     :       3.29       0.00      19029          0          0
  rens             :       0.01       0.00          0          0          0
  reoptsols        :       0.00       0.00          0          0          0
  repair           :       0.00       0.00          0          0          0
  rins             :       2.50       0.00         32          0          0
  rootsoldiving    :      22.31       0.00        167          1          0
  rounding         :       2.11       0.00       7263          0          0
  shiftandpropagate:       0.00       0.00          0          0          0
  shifting         :      28.35       0.00       7170          1          1
  simplerounding   :       0.37       0.00          0          0          0
  subnlp           :     258.57       0.00          0          0          0
  trivial          :       0.01       0.00          2          2          2
  trivialnegation  :       0.00       0.00          0          0          0
  trustregion      :       0.00       0.00          0          0          0
  trysol           :       0.43       0.00          0          0          0
  twoopt           :       0.00       0.00          0          0          0
  undercover       :       4.57       0.00          1          1          1
  vbounds          :       0.00       0.00          0          0          0
  veclendiving     :      48.58       0.00        608          0          0
  zeroobj          :       0.00       0.00          0          0          0
  zirounding       :       0.64       0.00       1000          0          0
  other solutions  :          -          -          -          0          -
Diving (single)    :      Calls      Nodes   LP Iters Backtracks  Conflicts   MinDepth   MaxDepth   AvgDepth  RoundSols  NLeafSols  MinSolDpt  MaxSolDpt  AvgSolDpt
  actconsdiving    :          0          -          -          -          -          -          -          -          -          -          -          -          -
  coefdiving       :          0          -          -          -          -          -          -          -          -          -          -          -          -
  conflictdiving   :       1358      44624     862583        833      15820         66         90       78.1          0          -          -          -          -
  distributiondivin:        458      17944     292931        504       6811         36         88       74.7          0          -          -          -          -
  farkasdiving     :          0          -          -          -          -          -          -          -          -          -          -          -          -
  fracdiving       :        264      33596     297861        120        906         65        395      154.9          0          -          -          -          -
  guideddiving     :        300      29737     305801         46        891         64        356      130.0          0          1        141        141      141.0
  indicatordiving  :          0          -          -          -          -          -          -          -          -          -          -          -          -
  linesearchdiving :        458      27146     299242         96       9980         64        112       91.3          0          1         88         88       88.0
  pscostdiving     :        244      11514     333233        209       4344         65         91       79.9          0          3         81         86       83.3
  veclendiving     :        608      29270     291159        444      20108         65         96       78.3          0          -          -          -          -
Diving (adaptive)  :      Calls      Nodes   LP Iters Backtracks  Conflicts   MinDepth   MaxDepth   AvgDepth  RoundSols  NLeafSols  MinSolDpt  MaxSolDpt  AvgSolDpt
  actconsdiving    :          4        223       2800          7         62         73         78       75.0          0          -          -          -          -
  coefdiving       :          4        254       2177          4        133         76         92       81.8          0          -          -          -          -
  conflictdiving   :          0          -          -          -          -          -          -          -          -          -          -          -          -
  distributiondivin:          0          -          -          -          -          -          -          -          -          -          -          -          -
  farkasdiving     :          0          -          -          -          -          -          -          -          -          -          -          -          -
  fracdiving       :          1        346       1587          1          8        363        363      363.0          0          -          -          -          -
  guideddiving     :          3        319       3718          2         18         90        151      123.7          0          -          -          -          -
  indicatordiving  :          0          -          -          -          -          -          -          -          -          -          -          -          -
  linesearchdiving :          6        412       4341          3        182         86        110       97.7          0          -          -          -          -
  pscostdiving     :          4        214       8183          5         60         80         87       82.8          0          -          -          -          -
  veclendiving     :          4        205       1886          2        133         80         91       84.2          0          -          -          -          -
Neighborhoods      :      Calls  SetupTime  SolveTime SolveNodes       Sols       Best       Exp3  EpsGreedy        UCB TgtFixRate  Opt  Inf Node Stal  Sol  Usr Othr Actv
  rens             :          2       0.06       0.05         44          0          0    0.00000   -1.00000    0.48353      0.550    0    2    0    0    0    0    0    1
  rins             :          1       0.02       0.03         83          0          0    0.00000   -1.00000    0.48564      0.900    0    0    0    1    0    0    0    1
  mutation         :          2       0.03       0.12         88          0          0    0.00000   -1.00000    0.46298      0.850    0    1    0    1    0    0    0    1
  localbranching   :          3       0.07       0.14        141          0          0    0.00000   -1.00000    0.47385      0.863    0    1    0    2    0    0    0    1
  crossover        :          4       0.10       0.24        114          0          0    0.00000   -1.00000    0.47111      0.722    0    2    0    2    0    0    0    1
  proximity        :          2       0.04       0.10         70          0          0    0.00000   -1.00000    0.46503      0.850    0    1    0    1    0    0    0    1
  zeroobjective    :          2       0.04       0.05         73          0          0    0.00000   -1.00000    0.46503      0.850    0    1    0    1    0    0    0    1
  dins             :          2       0.05       0.15         66          0          0    0.00000   -1.00000    0.46453      0.850    0    1    0    1    0    0    0    1
  trustregion      :          0       0.00       0.00          0          0          0    0.00000   -1.00000    1.00000      0.900    0    0    0    0    0    0    0    0
Expressions        :   #IntEval  IntEvalTi   #RevProp  RevPropTi    DomReds    Cutoffs  #Estimate  EstimTime  Branching  #Simplify SimplifyTi Simplified
  pow              :          0       0.00          0       0.00          0          0          0       0.00          0          0       0.00          0
  prod             :      17820       0.00          0       0.00          0          0          0       0.00          0      10050       0.00          0
  sum              :          8       0.00          2       0.00          0          0          0       0.00          0          3       0.06          2
  var              :       4679       0.00          0       0.00          0          0          0       0.00          0      21592       0.01          0
  varidx           :          0       0.00          0       0.00          0          0          0       0.00          0          0       0.00          0
LP                 :       Time      Calls Iterations  Iter/call   Iter/sec  Time-0-It Calls-0-It    ItLimit
  primal LP        :     118.02      10106          0       0.00       0.00     118.01      10106
  dual LP          :    1677.35     379183    5701525      15.71    3399.13       7.00      16148
  lex dual LP      :       0.00          0          0       0.00          -
  barrier LP       :       0.00          0          0       0.00          -       0.00          0
  resolve instable :       0.00          0          0       0.00          -
  diving/probing LP:     463.87      21336    2918124     136.77    6290.82
  strong branching :      31.78        303     112999     372.93    3555.66          -          -          9
    (at root node) :          -         19      14862     782.21          -
  conflict analysis:      10.87       6351      55453       8.73    5101.47
NLP relaxation     :
  solve time       :      12.07 (8 calls)
  convexity        :  nonconvex (148 linear rows, 0 convex ineq., 0 nonconvex ineq., 1140 nonlinear eq. or two-sided ineq.)
NLP Solvers        :  #Problems  ProblemTi    #Solves  SolveTime      #Iter  Time/Iter      #Okay #TimeLimit #IterLimit #LObjLimit #Interrupt  #NumError #EvalError  #OutOfMem #LicenseEr #OtherTerm   #GlobOpt    #LocOpt  #Feasible #LocInfeas #GlobInfea #Unbounded   #Unknown
  ipopt            :         12      10.90         43      73.47       1627       0.05         41          0          2          0          0          0          0          0          0          0          0         17          0         24          0          0          2
B&B Tree           :
  number of runs   :          1
  nodes            :     344069 (250122 internal, 93947 leaves)
  feasible leaves  :          0
  infeas. leaves   :          2
  objective leaves :      93945
  nodes (total)    :     344069 (250122 internal, 93947 leaves)
  nodes left       :     156176
  max depth        :         83
  max depth (total):         83
  backtracks       :      62450 (18.2%)
  early backtracks :          0 (0.0%)
  nodes exc. ref.  :          0 (0.0%)
  delayed cutoffs  :          0
  repropagations   :         12 (67 domain reductions, 0 cutoffs)
  avg switch length:       7.31
  switching time   :     198.65
Estim. Tree Size   :     688138
Estimation Tree    : 500245 nodes (344069 visited, 250122 internal, 93947 leaves, 156176 open), weight: 0.0000 completed 0.0202
Estimations        :      estim      value      trend resolution     smooth
  wbe              :         in          -          -          -          -
  tree-profile     :         -1          -          -          -          -
  gap              :   17304867    0.59345    0.00001        128   17369868
  tree-weight      :     688138    0.00000    0.00000        128     687199
  leaf-frequency   :    3742187    0.27305    0.00002        128    3589612
  ssg              :   58104422    0.96809   -0.00000        128   64656294
  open-nodes       :     688138 156176.00000   77.13615        128     687199
Root Node          :
  First LP value   : -5.44713804713805e+00
  First LP Iters   :       2193 (12183.33 Iter/sec)
  First LP Time    :       0.18
  Final Dual Bound : -5.23870946169279e+00
  Final Root Iters :      19351
  Root LP Estimate : -2.58079187951350e+00
Solution           :
  Solutions found  :         16 (11 improvements)
  First Solution   : +1.00000000000000e+05   (in run 1, after 0 nodes, 0.04 seconds, depth 0, found by <trivial>)
  Gap First Sol.   :   infinite
  Gap Last Sol.    :      77.37 %
  Primal Bound     : -2.93916947250282e+00   (in run 1, after 1036 nodes, 215.56 seconds, depth 141, found by <guideddiving>)
  Dual Bound       : -4.95269607692120e+00
  Gap              :      68.51 %
Integrals          :      Total       Avg%
  primal-dual      :  151302.71      42.03
  primal-ref       :          -          - (not evaluated)
  dual-ref         :          -          - (not evaluated)
